1 of 1 MIP starts provided solutions.
MIP start 'm1' defined initial solution with objective 102147.0000.
Tried aggregator 1 time.
MIP Presolve eliminated 0 rows and 1 columns.
MIP Presolve modified 330900 coefficients.
Reduced MIP has 60100 rows, 30400 columns, and 9148569 nonzeros.
Reduced MIP has 30000 binaries, 0 generals, 0 SOSs, and 0 indicators.
Presolve time = 7.76 sec. (4573.44 ticks)
Probing time = 0.26 sec. (101.08 ticks)
Tried aggregator 1 time.
Reduced MIP has 60100 rows, 30400 columns, and 9148569 nonzeros.
Reduced MIP has 30000 binaries, 0 generals, 0 SOSs, and 0 indicators.
Presolve time = 5.02 sec. (2260.23 ticks)
Probing time = 0.26 sec. (101.06 ticks)
Clique table members: 100.
MIP emphasis: balance optimality and feasibility.
MIP search method: dynamic search.
Parallel mode: none, using 1 thread.
Root relaxation solution time = 2.18 sec. (993.89 ticks)

        Nodes                                         Cuts/
   Node  Left     Objective  IInf  Best Integer    Best Bound    ItCnt     Gap

*     0+    0                       102147.0000   2.30449e+07      517     --- 
      0     0   102176.9086    40   102147.0000   102176.9086      517    0.03%
      0     0   102157.4785    18   102147.0000      Cuts: 30      551    0.01%
      0     0   102152.6136    21   102147.0000      Cuts: 32      571    0.01%

Implied bound cuts applied:  11
Flow cuts applied:  16
Mixed integer rounding cuts applied:  9
Gomory fractional cuts applied:  8

Root node processing (before b&c):
  Real time             =   31.50 sec. (15625.04 ticks)
Sequential b&c:
  Real time             =    0.00 sec. (0.00 ticks)
                          ------------
Total (root+branch&cut) =   31.50 sec. (15625.04 ticks)
